120
150
56
48
55
51
52
51
55
49
44
46
49
51
46
51
47
50
40
59
56
42
52
46
49
55
42
59
59
49
50
41
53
52
45
59
49
42
52
49
49
46
49
57
55
41
52
41
44
45
59
42
49
57
47
52
54
59
49
58
42
44
51
56
53
48
57
55
54
52
54
52
45
52
41
49
53
48
59
49
49
59
48
54
46
53
42
48
41
44
52
49
55
47
42
55
52
41
56
58
50
49
42
54
42
45
48
47
46
46
49
58
47
55
49
43
48
59
52
49
49
42
